benchmarks_vrp/CMT11/fixed_c/CMT11_3.vrp
NAME: CMT11_3
TYPE: CVRP
COMMENT: 1042.11 - Cluster Nr.3
DIMENSION: 18
CAPACITY: 200
EDGE_WEIGHT_TYPE: EUC_2D
NODE_COORD_TYPE: TWOD_COORDS
NODE_COORD_SECTION: 
5 25 45
13 14 50
7 20 50
3 25 52
18 15 51
2 30 50
14 30 55
4 20 55
8 20 45
9 22 51
12 22 44
15 16 54
6 16 48
11 10 45
16 30 46
17 20 44
1 18 53
10 18 49
DEPOT_SECTION: 
11
-1
DEMAND_SECTION: 
11 0
16 11
10 9
9 7
18 6
17 7
12 10
13 8
8 11
1 7
7 11
4 12
5 17
6 11
14 12
3 10
15 5
2 7
EOF
