benchmarks_vrp/CMT11/fixed_c/CMT11_3.tour
NAME: CMT11_3 solution
TYPE: TOUR
TOUR_SECTION:
11 6 10 8 17 12 5 16 2 14 3 9 7 4 1 15 18 13 -1
-1
EOF